%chk=H2O2-freq
#p RHF/6-31G Freq NoSymm

H2O2 Frequency Analysis

0 1
O  0.0  0.0  0.0
O  0.0  0.0  1.5
H  1.0  0.0  0.0
H  0.0  0.7  1.0
