%chk=NH3-opt
#p RHF/6-31G opt

NH3 Optimization

0 1
N  0.            0.   0.
H  0.            1.  -0.2
H  0.8660254038 -0.5 -0.2
H -0.8660254038 -0.5 -0.2
