#p HF/6-31G freq nosymm

H2O

0 1
O 1.0 0.0 0.0
H 1.0 1.0 0.0
H 1.0 0.0 1.0
