#p HF/6-31G nosymm Force

HF Grad of H2O

0 1
O  1.0  0.0  0.0
H  1.0  1.0  0.0
H  1.0  0.0  1.0
