%chk=HF-hess
#p HF/6-31G nosymm Freq

HF Hess of H2O2

0 1
O  0.0  0.0  0.0
O  0.0  0.0  1.5
H  1.0  0.0  0.0
H  0.0  1.0  1.5
