%chk=CH3-HF-freq
#p UHF/6-31G nosymm SCF(VeryTight) Freq

CH3 HF Frequency

0 2
C  0.  0.  0.
H  1.  0.  0.
H  0.  2.  0.
H  0.  0.  1.5

