%chk=CH3-B2PLYP-freq
#p UB2PLYP(Full)/6-31G nosymm SCF(VeryTight) Freq Int(Grid=99590)

CH3 B2PLYP Frequency

0 2
C  0.  0.  0.
H  1.  0.  0.
H  0.  2.  0.
H  0.  0.  1.5

