%chk=CH3-XYGJOS-force
#p UXYGJOS(Full)/6-31G nosymm SCF(VeryTight, Conver=11) Force

CH3 XYGJOS Force

0 2
C  0.  0.  0.
H  1.  0.  0.
H  0.  2.  0.
H  0.  0.  1.5

