%chk=H2O2-HF-freq
#p RHF/6-31G nosymm SCF(VeryTight) Freq

H2O2 HF Frequency

0 1
O  0.0  0.0  0.0
O  0.0  0.0  1.5
H  1.0  0.0  0.0
H  0.0  0.7  1.0

