%chk=H2O2-MP2-freq
#p RMP2(Full)/6-31G nosymm SCF(VeryTight) Freq

H2O2 MP2 Frequency

0 1
O  0.0  0.0  0.0
O  0.0  0.0  1.5
H  1.0  0.0  0.0
H  0.0  0.7  1.0

