%chk=H2O2-XYGJOS-force
#p RXYGJOS(Full)/6-31G nosymm SCF(VeryTight) Force

H2O2 XYGJOS Force

0 1
O  0.0  0.0  0.0
O  0.0  0.0  1.5
H  1.0  0.0  0.0
H  0.0  0.7  1.0

