%chk=NH3-B3LYP-freq
#p RB3LYP/6-31G nosymm SCF(VeryTight) Freq Int(Grid=99590)

NH3 B3LYP Frequency

0 1
N  0.  0.  0.
H  1.5 0.  0.2
H  0.1 1.2 0.
H  0.  0.  1.

