%chk=NH3-MP2-freq
#p RMP2(Full)/6-31G nosymm SCF(VeryTight) Freq

NH3 MP2 Frequency

0 1
N  0.  0.  0.
H  1.5 0.  0.2
H  0.1 1.2 0.
H  0.  0.  1.

