%chk=NH3-XYG3-freq
#p RXYG3(Full)/6-31G nosymm SCF(VeryTight) Freq

NH3 XYG3 Freq

0 1
N  0.  0.  0.
H  1.5 0.  0.2
H  0.1 1.2 0.
H  0.  0.  1.

