%chk=NH3-XYGJOS-freq
#p RXYGJOS(Full)/6-31G nosymm SCF(VeryTight) Freq

NH3 XYGJOS Freq

0 1
N  0.  0.  0.
H  1.  0.  0.
H  0.  2.  0.
H  0.  0.  1.5

